pair_style eam/alloy
pair_coeff * * Mo.set Mo
