SYSTEM = Ir H
IBRION=0
POTIM=0.1
ISYM=0
NSW=1000
EDIFF=0.05
EDIFFG=-0.0
PREC=med
LWAVE=.FALSE.
LCHARG=.FALSE.
LINTERACT=.TRUE.
