pair_style eam/alloy
pair_coeff * * Fe.eam.alloy Fe
