pair_style eam/alloy
pair_coeff * * W.set W
