ALGO=fast
NELMIN=4
EDIFF=1E-6
LREAL=Auto
NPAR=1
NSIM=4
LPLANE=.TRUE.

#Eon Required Settings
IBRION=3
POTIM=0
LMPMD=.TRUE.
NSW=99999999
EDIFFG=-1e-6
LWAVE=.FALSE.
LCHARG=.FALSE.
ISIF=0
ISYM=0
