Cu O
   7.23822153800000
     1.0000000000000000    0.0000000000000000    0.0000000000000000
     0.0000000000000000    2.0000000005526202    0.0000000000000000
     0.0000000000000000    0.0000000000000000    1.9341767762289801
   Cu   O
    64    10
Selective dynamics
Direct
  0.6250000531175459  0.1874999999471925  0.1156507692126567   F   F   F
  0.6250172042325569  0.0629732778223052  0.2413642568933966   T   T   T
  0.6248719621731624  0.1921446946748089  0.3747309636419378   T   T   T
  0.6249802945631151  0.0622304175739864  0.4975424700205201   T   T   T
  0.6250000531175459  0.4374999998765361  0.1156507692126567   F   F   F
  0.6250316022531349  0.3128094956792807  0.2412893859029605   T   T   T
  0.6250685450053239  0.4335047783715016  0.3703669708776426   T   T   T
  0.6250973263343527  0.3009521364443692  0.5530616845721180   T   T   T
  0.6250000531175459  0.6874999998058726  0.1156507692126567   F   F   F
  0.6250341968498537  0.5626727265392738  0.2417575200428099   T   T   T
  0.6250559523952398  0.6920874217272908  0.3704535420569610   T   T   T
  0.6250891876205125  0.5628130457147463  0.6250834709108291   T   T   T
  0.6250000531175459  0.9374999997352944  0.1156507692126567   F   F   F
  0.6250132432084778  0.8122255649381346  0.2411639644207210   T   T   T
  0.6249813218869551  0.9332667791717836  0.3725145309800137   T   T   T
  0.6251204128048311  0.8266749362434147  0.5657475216976923   T   T   T
  0.8750000531163593  0.0624999999825206  0.1156507692126567   F   F   F
  0.1250000531149666  0.1874999999471925  0.1156507692126567   F   F   F
  0.8752194570242399  0.1884506970549803  0.2423668233141772   T   T   T
  0.1249947695086086  0.0625477343563115  0.2413550269562385   T   T   T
  0.8720510139599575  0.0625995231163061  0.3685786349429537   T   T   T
  0.1249240085695813  0.1850715692410173  0.3734094395466867   T   T   T
  0.8745048356446444  0.1849189774172829  0.5055984751730053   T   T   T
  0.8750000531163593  0.3124999999118643  0.1156507692126567   F   F   F
  0.1250000531149666  0.4374999998765361  0.1156507692126567   F   F   F
  0.8770235196929782  0.4388524743275086  0.2430970927169749   T   T   T
  0.1249398027887602  0.3138345413960218  0.2428258677526975   T   T   T
  0.8749582110446048  0.3136164454632206  0.3716451308177638   T   T   T
  0.1250074354932836  0.4392832631203513  0.3769270909118309   T   T   T
  0.8607491263964925  0.4317622720316104  0.5236349910164940   T   T   T
  0.8750000531163593  0.5624999998412079  0.1156507692126567   F   F   F
  0.1250000531149666  0.6874999998058726  0.1156507692126567   F   F   F
  0.8769198139338458  0.6866148836037883  0.2428823522176094   T   T   T
  0.1249833207148343  0.5628968606454754  0.2449196987562524   T   T   T
  0.8627424621272378  0.5632481981044141  0.3730182652369067   T   T   T
  0.1250398228783892  0.6878358964413587  0.3770204525514588   T   T   T
  0.8598752077185906  0.6973259083829323  0.5267939122506431   T   T   T
  0.8750000531163593  0.8124999997705515  0.1156507692126567   F   F   F
  0.1250000531149666  0.9374999997352944  0.1156507692126567   F   F   F
  0.8756173371725938  0.9366320732985562  0.2422129751124654   T   T   T
  0.1250081473098306  0.8112540156894446  0.2424704535465768   T   T   T
  0.8756821266039535  0.8113900081276526  0.3721138744633752   T   T   T
  0.1249448216801682  0.9398474123052816  0.3735942734346626   T   T   T
  0.8697899073401616  0.9381856554699090  0.5020851031464787   T   T   T
  0.3750000531122097  0.0624999999825206  0.1156507692126567   F   F   F
  0.3745636053156277  0.1884575302841487  0.2423519354154685   T   T   T
  0.3777632551499304  0.0626175114846710  0.3685441256278456   T   T   T
  0.3753020212646121  0.1849344935190971  0.5056170938133515   T   T   T
  0.3750000531122097  0.3124999999118643  0.1156507692126567   F   F   F
  0.3728236786450312  0.4388748071882612  0.2430864798915588   T   T   T
  0.3749258589628034  0.3136614433679517  0.3715962736390895   T   T   T
  0.3896752097834365  0.4317687019909298  0.5236090977880856   T   T   T
  0.3750000531122097  0.5624999998412079  0.1156507692126567   F   F   F
  0.3729791716980904  0.6865868545881990  0.2429190943060601   T   T   T
  0.3873702519148255  0.5632412812509912  0.3730477751475078   T   T   T
  0.3905755595233227  0.6973645176984844  0.5267449010168593   T   T   T
  0.3750000531122097  0.8124999997705515  0.1156507692126567   F   F   F
  0.3742752896784433  0.9366322202173314  0.2422226469092957   T   T   T
  0.3743497120786893  0.8113759283592327  0.3720799724254040   T   T   T
  0.3801831134126640  0.9381546013595212  0.5020244105810807   T   T   T
  0.1249934864330567  0.0601391120466990  0.5309092957997894   T   T   T
  0.1250938201887362  0.3131538050011825  0.4984807662881600   T   T   T
  0.1251929133476423  0.5647203554659969  0.5088766638101658   T   T   T
  0.1250553906514176  0.8134267466834161  0.5008962975606555   T   T   T
  0.8734251347883436  0.0618299147930947  0.5617518083947435   T   T   T
  0.3765656198756208  0.0618079586874529  0.5617041754871462   T   T   T
  0.8869224806636687  0.8227748577135449  0.5714904113529653   T   T   T
  0.3632995010894592  0.8227925039656838  0.5714852528567272   T   T   T
  0.8688850181391717  0.5646986956188674  0.5183228952153606   T   T   T
  0.6251740565181269  0.6870227819256894  0.6102552085378533   T   T   T
  0.8862098688075946  0.3047015558454857  0.5654268666313822   T   T   T
  0.3639872981525749  0.3047199291392931  0.5654485429689022   T   T   T
  0.3814882137088648  0.5647308148550347  0.5183397797876388   T   T   T
  0.6251536753498059  0.4391511093958966  0.6065217072252671   T   T   T

  0.00000000E+00  0.00000000E+00  0.00000000E+00
  0.00000000E+00  0.00000000E+00  0.00000000E+00
  0.00000000E+00  0.00000000E+00  0.00000000E+00
  0.00000000E+00  0.00000000E+00  0.00000000E+00
  0.00000000E+00  0.00000000E+00  0.00000000E+00
  0.00000000E+00  0.00000000E+00  0.00000000E+00
  0.00000000E+00  0.00000000E+00  0.00000000E+00
  0.00000000E+00  0.00000000E+00  0.00000000E+00
  0.00000000E+00  0.00000000E+00  0.00000000E+00
  0.00000000E+00  0.00000000E+00  0.00000000E+00
  0.00000000E+00  0.00000000E+00  0.00000000E+00
  0.00000000E+00  0.00000000E+00  0.00000000E+00
  0.00000000E+00  0.00000000E+00  0.00000000E+00
  0.00000000E+00  0.00000000E+00  0.00000000E+00
  0.00000000E+00  0.00000000E+00  0.00000000E+00
  0.00000000E+00  0.00000000E+00  0.00000000E+00
  0.00000000E+00  0.00000000E+00  0.00000000E+00
  0.00000000E+00  0.00000000E+00  0.00000000E+00
  0.00000000E+00  0.00000000E+00  0.00000000E+00
  0.00000000E+00  0.00000000E+00  0.00000000E+00
  0.00000000E+00  0.00000000E+00  0.00000000E+00
  0.00000000E+00  0.00000000E+00  0.00000000E+00
  0.00000000E+00  0.00000000E+00  0.00000000E+00
  0.00000000E+00  0.00000000E+00  0.00000000E+00
  0.00000000E+00  0.00000000E+00  0.00000000E+00
  0.00000000E+00  0.00000000E+00  0.00000000E+00
  0.00000000E+00  0.00000000E+00  0.00000000E+00
  0.00000000E+00  0.00000000E+00  0.00000000E+00
  0.00000000E+00  0.00000000E+00  0.00000000E+00
  0.00000000E+00  0.00000000E+00  0.00000000E+00
  0.00000000E+00  0.00000000E+00  0.00000000E+00
  0.00000000E+00  0.00000000E+00  0.00000000E+00
  0.00000000E+00  0.00000000E+00  0.00000000E+00
  0.00000000E+00  0.00000000E+00  0.00000000E+00
  0.00000000E+00  0.00000000E+00  0.00000000E+00
  0.00000000E+00  0.00000000E+00  0.00000000E+00
  0.00000000E+00  0.00000000E+00  0.00000000E+00
  0.00000000E+00  0.00000000E+00  0.00000000E+00
  0.00000000E+00  0.00000000E+00  0.00000000E+00
  0.00000000E+00  0.00000000E+00  0.00000000E+00
  0.00000000E+00  0.00000000E+00  0.00000000E+00
  0.00000000E+00  0.00000000E+00  0.00000000E+00
  0.00000000E+00  0.00000000E+00  0.00000000E+00
  0.00000000E+00  0.00000000E+00  0.00000000E+00
  0.00000000E+00  0.00000000E+00  0.00000000E+00
  0.00000000E+00  0.00000000E+00  0.00000000E+00
  0.00000000E+00  0.00000000E+00  0.00000000E+00
  0.00000000E+00  0.00000000E+00  0.00000000E+00
  0.00000000E+00  0.00000000E+00  0.00000000E+00
  0.00000000E+00  0.00000000E+00  0.00000000E+00
  0.00000000E+00  0.00000000E+00  0.00000000E+00
  0.00000000E+00  0.00000000E+00  0.00000000E+00
  0.00000000E+00  0.00000000E+00  0.00000000E+00
  0.00000000E+00  0.00000000E+00  0.00000000E+00
  0.00000000E+00  0.00000000E+00  0.00000000E+00
  0.00000000E+00  0.00000000E+00  0.00000000E+00
  0.00000000E+00  0.00000000E+00  0.00000000E+00
  0.00000000E+00  0.00000000E+00  0.00000000E+00
  0.00000000E+00  0.00000000E+00  0.00000000E+00
  0.00000000E+00  0.00000000E+00  0.00000000E+00
  0.00000000E+00  0.00000000E+00  0.00000000E+00
  0.00000000E+00  0.00000000E+00  0.00000000E+00
  0.00000000E+00  0.00000000E+00  0.00000000E+00
  0.00000000E+00  0.00000000E+00  0.00000000E+00
  0.00000000E+00  0.00000000E+00  0.00000000E+00
  0.00000000E+00  0.00000000E+00  0.00000000E+00
  0.00000000E+00  0.00000000E+00  0.00000000E+00
  0.00000000E+00  0.00000000E+00  0.00000000E+00
  0.00000000E+00  0.00000000E+00  0.00000000E+00
  0.00000000E+00  0.00000000E+00  0.00000000E+00
  0.00000000E+00  0.00000000E+00  0.00000000E+00
  0.00000000E+00  0.00000000E+00  0.00000000E+00
  0.00000000E+00  0.00000000E+00  0.00000000E+00
  0.00000000E+00  0.00000000E+00  0.00000000E+00
