SYSTEM = Ir H
IBRION=2
POTIM=0.1
ISYM=0
#ISMEAR=-1;SIGMA=.1
NSW=1000
EDIFF=0.1E-04
EDIFFG=-0.001
PREC=med
LWAVE=.FALSE.
LCHARG=.FALSE.
